c Output_time 26.03.2020 18:13:25_+0100 1585242805973701878
c ** Program information **
c program_name                          "QBRG_debug"
c version                               "0.3.20"
c date                                  "25.3.2020"
c gid_id                                "673970833836058123f633335630c185360d632e"
c author                                "Oliver Kullmann"
c url                                   "https://github.com/OKullmann/oklibrary/blob/master/Satisfiability/Transformers/Generators/Random/QBRG.cpp"
c ** Machine information **
c machine_name                          "chyna-Lenovo-G50-70"
c bogomips                              3791.08
c ** Compilation information **
c compiler_version                      "g++ 7.5.0"
c compilation_date                      "Mar_26_2020 11:16:30"
c compilation_options                   "--std=c++17 -pedantic -fmax-errors=5 -Wall -Wextra -g -D_GLIBCXX_DEBUG"
c NDEBUG                                0
c OPTIMIZE                              0
c ** Parameters **
c command-line                          "./QBRG_debug" "e40 a40 40" "494*1,1|2-2,1|3-3,1" "" "1,t" ""
c output                                "QuBlRaGe_120_494_1585242805771033163.qdimacs"
c options                               "filtered,renamed"
c num_quantifier_blocks                 3
c  quantifier_blocks                    1:e1-40 2:a41-80 3:e81-120
c num_clause-blocks                     1
c  clause-blocks                        494 * {1-40,1,1/2} | {41-80,1,1/2} | {81-120,1,1/2}
c num_e-seeds                           30+2=32
c  e-seeds                              1 0 1 0 4 120 2 40 1 40 0 40 1 494 3 1 1 1 1 2 2 2 1 1 2 3 3 1 1 2 1 1585242805771032391
p cnf 120 494
e 1 2 3 4 5 6 7 8 9 10 11 12 13 14 15 16 17 18 19 20 21 22 23 24 25 26 27 28 29 30 31 32 33 34 35 36 37 38 39 40 0
a 41 42 43 44 45 46 47 48 49 50 51 52 53 54 55 56 57 58 59 60 61 62 63 64 65 66 67 68 69 70 71 72 73 74 75 76 77 78 79 80 0
e 81 82 83 84 85 86 87 88 89 90 91 92 93 94 95 96 97 98 99 100 101 102 103 104 105 106 107 108 109 110 111 112 113 114 115 116 117 118 119 120 0
-24 -41 -81 0
20 41 -81 0
19 -42 -81 0
-20 -50 -81 0
-14 56 -81 0
-19 57 -81 0
34 -61 -81 0
-34 68 -81 0
-33 44 81 0
-39 47 81 0
5 57 81 0
-25 57 81 0
15 -63 81 0
30 -72 81 0
29 77 81 0
37 -41 -82 0
-33 -48 -82 0
6 49 -82 0
31 -56 -82 0
-10 57 -82 0
20 60 -82 0
-34 64 -82 0
1 72 -82 0
37 -78 -82 0
-26 -42 82 0
-38 45 82 0
-10 47 82 0
10 54 82 0
-36 56 82 0
-32 -67 82 0
25 68 82 0
40 44 -83 0
-35 54 -83 0
4 -55 -83 0
33 -57 -83 0
-28 63 -83 0
13 -71 -83 0
28 50 83 0
-35 50 83 0
6 63 83 0
36 -51 -84 0
-21 -57 -84 0
30 62 -84 0
27 63 -84 0
10 -78 -84 0
20 -48 84 0
-3 53 84 0
-38 -57 84 0
-8 62 84 0
31 77 84 0
37 79 84 0
30 45 -85 0
-31 -50 -85 0
-23 -56 -85 0
16 -58 -85 0
-32 -58 -85 0
-8 66 -85 0
-14 70 -85 0
14 -75 -85 0
-4 79 -85 0
25 79 -85 0
15 -42 85 0
-7 65 85 0
3 41 -86 0
1 -55 -86 0
-18 59 -86 0
-23 -60 -86 0
15 -61 -86 0
-7 -66 -86 0
-6 72 -86 0
-38 -80 -86 0
-24 45 86 0
35 -50 86 0
-30 -57 86 0
2 80 86 0
-3 80 86 0
35 43 -87 0
20 -45 -87 0
-13 -47 -87 0
27 56 -87 0
31 56 -87 0
-18 59 -87 0
-25 -62 -87 0
17 66 -87 0
-4 -68 -87 0
-1 45 87 0
-19 -46 87 0
-19 50 87 0
20 55 87 0
-39 -75 87 0
-31 42 -88 0
10 -43 -88 0
40 50 -88 0
35 -61 -88 0
-34 66 -88 0
-17 -74 -88 0
17 77 -88 0
-18 -52 88 0
25 -58 88 0
28 -76 88 0
24 -79 88 0
-22 80 88 0
25 57 -89 0
33 -68 -89 0
36 -73 -89 0
-14 -76 -89 0
30 -49 89 0
20 -58 89 0
31 65 89 0
-6 67 89 0
23 69 89 0
29 -55 -90 0
31 -56 -90 0
28 75 -90 0
15 79 -90 0
-21 44 90 0
-30 -46 90 0
27 47 90 0
19 48 90 0
5 55 90 0
37 -57 90 0
32 60 90 0
16 64 90 0
19 -70 90 0
-7 -42 -91 0
4 54 -91 0
17 60 -91 0
4 62 -91 0
-28 74 -91 0
23 78 -91 0
-21 69 91 0
-31 69 91 0
39 -70 91 0
10 70 91 0
-19 42 -92 0
-33 44 -92 0
-32 -45 -92 0
35 50 -92 0
-32 -56 -92 0
-8 -62 -92 0
-34 -63 -92 0
-31 -76 -92 0
-7 -43 92 0
10 48 92 0
1 -65 92 0
40 -46 -93 0
-15 47 -93 0
6 -52 -93 0
-15 59 -93 0
28 60 -93 0
-8 -71 -93 0
12 71 -93 0
-11 -73 -93 0
19 -44 93 0
-1 49 93 0
12 -54 93 0
-12 -68 93 0
26 71 93 0
-11 -44 -94 0
-22 44 -94 0
26 -55 -94 0
28 -55 -94 0
-31 56 -94 0
-40 76 -94 0
30 78 -94 0
35 -65 94 0
-37 65 94 0
14 -66 94 0
15 67 94 0
19 43 -95 0
-30 -48 -95 0
13 49 -95 0
10 -62 -95 0
17 64 -95 0
-3 -76 -95 0
26 -80 -95 0
-30 -55 95 0
-36 55 95 0
13 58 95 0
15 71 95 0
-3 77 95 0
29 -47 -96 0
-20 49 -96 0
-4 41 96 0
18 69 96 0
31 -50 -97 0
17 -54 -97 0
19 -63 -97 0
32 65 -97 0
-17 -77 -97 0
-25 -48 97 0
30 -49 97 0
39 -53 97 0
39 54 97 0
-31 -61 97 0
33 -69 97 0
27 -73 97 0
17 76 97 0
4 -77 97 0
31 79 97 0
23 -42 -98 0
-4 -49 -98 0
-13 -51 -98 0
15 68 -98 0
-30 44 98 0
21 -59 98 0
18 59 98 0
-25 63 98 0
20 73 98 0
34 77 98 0
-40 -44 -99 0
32 -47 -99 0
-12 -58 -99 0
-17 79 -99 0
37 -59 99 0
-32 63 99 0
32 -45 -100 0
-24 -59 -100 0
21 -60 -100 0
-17 70 -100 0
-18 44 100 0
39 44 100 0
26 46 100 0
-22 53 100 0
-14 -66 100 0
-12 70 100 0
31 72 100 0
8 -47 -101 0
-30 52 -101 0
24 -56 -101 0
15 -60 -101 0
26 -70 -101 0
29 72 -101 0
20 -78 -101 0
-10 -79 -101 0
-12 44 101 0
37 -50 101 0
38 -50 101 0
-35 51 101 0
-40 -53 101 0
-29 -54 101 0
14 57 101 0
-4 62 101 0
-11 -65 101 0
-13 67 101 0
-38 -80 101 0
-16 -44 -102 0
37 51 -102 0
-18 52 -102 0
35 52 -102 0
-8 -55 -102 0
18 58 -102 0
-11 -69 -102 0
-30 71 -102 0
-3 -76 -102 0
19 -42 102 0
10 -43 102 0
2 61 102 0
15 -63 102 0
33 71 102 0
18 72 102 0
15 76 102 0
4 78 102 0
8 -43 -103 0
-40 -57 -103 0
-17 61 -103 0
-11 -74 -103 0
11 -41 103 0
-13 -54 103 0
2 -58 103 0
-40 -61 103 0
-19 62 103 0
-24 65 103 0
-39 -66 103 0
25 -70 103 0
10 -72 103 0
27 -76 103 0
21 -77 103 0
22 -47 -104 0
31 -48 -104 0
-18 -56 -104 0
3 61 -104 0
24 -69 -104 0
-12 69 -104 0
-2 -73 -104 0
-19 -73 -104 0
2 77 -104 0
10 -44 104 0
15 44 104 0
16 -48 104 0
2 59 104 0
-8 59 104 0
-11 68 104 0
32 71 104 0
-34 -45 -105 0
30 -50 -105 0
28 50 -105 0
20 -59 -105 0
-35 -66 -105 0
-24 66 -105 0
-29 66 -105 0
-19 68 -105 0
20 -78 -105 0
-20 79 -105 0
-33 -43 105 0
25 -45 105 0
6 48 105 0
-21 59 105 0
20 60 105 0
10 65 105 0
9 70 105 0
1 78 105 0
-21 -41 -106 0
4 49 -106 0
-13 -51 -106 0
25 66 -106 0
-2 73 -106 0
32 42 106 0
21 45 106 0
-39 -48 106 0
-32 -50 106 0
12 -55 106 0
-31 66 106 0
-25 -67 106 0
5 -70 106 0
-2 71 106 0
-4 -79 106 0
26 79 106 0
38 46 -107 0
32 -48 -107 0
-11 49 -107 0
10 -62 -107 0
-26 -72 -107 0
16 -76 -107 0
26 -52 107 0
-10 -56 107 0
6 74 107 0
36 -75 107 0
-23 80 107 0
9 -50 -108 0
-35 -53 -108 0
22 57 -108 0
-3 -63 -108 0
7 -63 -108 0
34 -65 -108 0
-3 67 -108 0
8 68 -108 0
12 -51 108 0
-12 61 108 0
-5 -63 108 0
-32 -64 108 0
-27 -69 108 0
-4 78 108 0
-33 78 108 0
-36 43 -109 0
19 -46 -109 0
27 -46 -109 0
20 -57 -109 0
13 75 -109 0
-21 75 -109 0
15 -78 -109 0
-27 46 109 0
-11 59 109 0
-22 41 -110 0
28 43 -110 0
13 50 -110 0
-23 -57 -110 0
-22 65 -110 0
35 74 -110 0
27 -76 -110 0
-6 -57 110 0
26 67 110 0
-3 74 110 0
-26 79 110 0
18 -54 -111 0
17 57 -111 0
26 -63 -111 0
2 -74 -111 0
-1 53 111 0
22 -55 111 0
28 55 111 0
-38 -59 111 0
-28 68 111 0
-1 70 111 0
18 -80 111 0
-2 -41 -112 0
35 41 -112 0
3 46 -112 0
-27 46 -112 0
32 -48 -112 0
29 77 -112 0
1 42 112 0
-31 -53 112 0
-6 -66 112 0
-2 70 112 0
27 78 112 0
23 -62 -113 0
4 69 -113 0
-34 -42 113 0
-8 -53 113 0
18 -56 113 0
-36 -62 113 0
10 65 113 0
-24 -69 113 0
-13 70 113 0
-23 -71 113 0
-36 -78 113 0
11 -45 -114 0
-32 -56 -114 0
8 -61 -114 0
-3 -71 -114 0
-38 -72 -114 0
17 -43 114 0
-14 -44 114 0
6 47 114 0
2 -63 114 0
27 67 114 0
31 -79 114 0
33 -41 -115 0
-19 -42 -115 0
30 51 -115 0
23 53 -115 0
-22 70 -115 0
37 78 -115 0
34 -79 -115 0
-9 -51 115 0
23 63 115 0
29 66 115 0
22 -77 115 0
-7 52 -116 0
-2 67 -116 0
6 -68 -116 0
29 -77 -116 0
20 43 116 0
-27 50 116 0
-39 -62 116 0
29 71 116 0
-8 75 116 0
27 -49 -117 0
-20 51 -117 0
1 52 -117 0
-2 -56 -117 0
-19 -56 -117 0
14 -57 -117 0
23 62 -117 0
-10 -68 -117 0
-30 42 117 0
36 44 117 0
-23 46 117 0
5 47 117 0
26 -49 117 0
-17 52 117 0
8 -66 117 0
38 74 117 0
7 76 117 0
-3 48 -118 0
-9 53 -118 0
38 -54 -118 0
-6 -55 -118 0
-19 56 -118 0
33 60 -118 0
21 67 -118 0
38 -73 -118 0
24 48 118 0
-19 -53 118 0
13 -54 118 0
29 73 118 0
35 -45 -119 0
5 45 -119 0
35 -55 -119 0
8 62 -119 0
-23 62 -119 0
21 65 -119 0
-2 66 -119 0
-33 -80 -119 0
11 49 119 0
17 -56 119 0
-8 59 119 0
25 -72 119 0
22 76 119 0
-21 -48 -120 0
40 -51 -120 0
23 -57 -120 0
38 -62 -120 0
-14 -67 -120 0
1 68 -120 0
-3 78 -120 0
29 48 120 0
12 -49 120 0
39 -52 120 0
-28 58 120 0
-12 -59 120 0
27 -63 120 0
-30 68 120 0
